NAME : X_26_seed_123_id_10
TYPE : CVRP
DIMENSION : 219
EDGE_WEIGHT_TYPE : EUC_2D
CAPACITY : 3
NODE_COORD_SECTION
1	0	0
2	412	277
3	846	277
4	551	101
5	340	286
6	390	492
7	834	863
8	67	181
9	539	712
10	453	515
11	252	999
12	940	925
13	532	308
14	487	109
15	488	123
16	115	303
17	647	863
18	781	71
19	674	83
20	769	580
21	59	207
22	815	5
23	250	587
24	917	653
25	395	65
26	499	465
27	665	285
28	654	356
29	137	186
30	207	493
31	506	609
32	536	201
33	688	395
34	725	104
35	626	922
36	681	840
37	929	513
38	361	190
39	689	610
40	691	221
41	130	181
42	453	618
43	650	500
44	17	73
45	732	147
46	6	983
47	58	568
48	881	280
49	10	143
50	575	806
51	310	256
52	969	42
53	521	650
54	263	794
55	747	383
56	658	415
57	947	970
58	793	636
59	378	355
60	225	18
61	836	79
62	510	962
63	116	343
64	606	935
65	761	450
66	564	22
67	770	90
68	246	860
69	860	839
70	905	502
71	404	238
72	845	664
73	960	637
74	581	997
75	502	262
76	847	49
77	729	932
78	293	881
79	56	149
80	391	807
81	861	539
82	269	560
83	575	278
84	581	450
85	960	753
86	988	144
87	178	813
88	421	318
89	801	581
90	394	633
91	311	914
92	322	944
93	50	502
94	232	396
95	618	578
96	612	432
97	992	648
98	719	570
99	765	809
100	733	139
101	406	35
102	291	210
103	244	583
104	178	981
105	115	866
106	848	972
107	575	183
108	286	70
109	972	390
110	615	697
111	717	600
112	207	971
113	430	233
114	690	225
115	14	931
116	323	652
117	446	343
118	183	486
119	756	384
120	149	896
121	673	333
122	645	352
123	605	789
124	44	392
125	53	896
126	284	318
127	8	854
128	890	980
129	342	389
130	335	615
131	423	957
132	14	714
133	140	295
134	542	453
135	58	929
136	29	300
137	48	62
138	715	842
139	252	826
140	901	369
141	766	698
142	758	265
143	321	934
144	160	234
145	693	967
146	499	940
147	417	974
148	1000	634
149	670	949
150	971	993
151	132	234
152	303	858
153	358	706
154	976	953
155	788	900
156	699	454
157	773	240
158	688	875
159	542	806
160	593	703
161	792	312
162	851	98
163	906	124
164	302	631
165	307	786
166	818	45
167	82	512
168	916	305
169	214	739
170	465	743
171	711	704
172	906	740
173	889	337
174	968	890
175	481	934
176	161	992
177	379	394
178	716	64
179	616	721
180	242	270
181	988	314
182	488	645
183	885	88
184	86	98
185	824	861
186	851	169
187	562	200
188	466	574
189	912	140
190	153	570
191	818	930
192	58	895
193	852	584
194	502	510
195	994	318
196	875	930
197	19	262
198	174	67
199	168	818
200	982	969
201	424	372
202	291	191
203	586	59
204	799	799
205	863	497
206	228	98
207	114	185
208	822	203
209	517	335
210	18	488
211	38	295
212	803	648
213	551	278
214	804	813
215	366	919
216	284	183
217	851	811
218	712	80
219	504	445
DEMAND_SECTION
1	0
2	1
3	1
4	1
5	1
6	1
7	1
8	1
9	1
10	1
11	1
12	1
13	1
14	1
15	1
16	1
17	1
18	1
19	1
20	1
21	1
22	1
23	1
24	1
25	1
26	1
27	1
28	1
29	1
30	1
31	1
32	1
33	1
34	1
35	1
36	1
37	1
38	1
39	1
40	1
41	1
42	1
43	1
44	1
45	1
46	1
47	1
48	1
49	1
50	1
51	1
52	1
53	1
54	1
55	1
56	1
57	1
58	1
59	1
60	1
61	1
62	1
63	1
64	1
65	1
66	1
67	1
68	1
69	1
70	1
71	1
72	1
73	1
74	1
75	1
76	1
77	1
78	1
79	1
80	1
81	1
82	1
83	1
84	1
85	1
86	1
87	1
88	1
89	1
90	1
91	1
92	1
93	1
94	1
95	1
96	1
97	1
98	1
99	1
100	1
101	1
102	1
103	1
104	1
105	1
106	1
107	1
108	1
109	1
110	1
111	1
112	1
113	1
114	1
115	1
116	1
117	1
118	1
119	1
120	1
121	1
122	1
123	1
124	1
125	1
126	1
127	1
128	1
129	1
130	1
131	1
132	1
133	1
134	1
135	1
136	1
137	1
138	1
139	1
140	1
141	1
142	1
143	1
144	1
145	1
146	1
147	1
148	1
149	1
150	1
151	1
152	1
153	1
154	1
155	1
156	1
157	1
158	1
159	1
160	1
161	1
162	1
163	1
164	1
165	1
166	1
167	1
168	1
169	1
170	1
171	1
172	1
173	1
174	1
175	1
176	1
177	1
178	1
179	1
180	1
181	1
182	1
183	1
184	1
185	1
186	1
187	1
188	1
189	1
190	1
191	1
192	1
193	1
194	1
195	1
196	1
197	1
198	1
199	1
200	1
201	1
202	1
203	1
204	1
205	1
206	1
207	1
208	1
209	1
210	1
211	1
212	1
213	1
214	1
215	1
216	1
217	1
218	1
219	1
DEPOT_SECTION
1
-1
EOF
